p tw 89 97
1 2
2 13
3 4
4 5
5 6
6 7
6 12
7 8
8 9
9 10
10 11
11 87
12 14
13 24
14 15
15 16
16 17
17 18
18 19
19 20
20 21
21 22
22 23
23 25
23 26
24 35
25 87
26 27
27 28
28 29
29 30
30 31
31 32
31 40
32 33
32 34
33 87
34 36
35 46
36 37
37 38
38 39
39 58
40 41
41 42
42 43
43 44
43 50
44 45
45 47
46 57
47 48
48 49
49 50
49 54
50 51
51 52
52 53
53 58
54 55
55 56
56 58
57 68
58 59
59 60
60 61
61 62
62 63
62 67
63 64
64 65
65 66
66 67
67 69
68 79
68 7
69 70
69 83
70 71
71 72
72 73
73 74
74 75
75 76
76 77
77 78
78 80
79 89
80 81
81 82
82 83
83 84
84 85
85 86
86 87
87 88
89 3
